sat
((q_0_0 false))
((q_0_1 false))
((q_0_2 false))
((q_0_3 false))
((q_0_4 false))
((q_0_5 false))
((q_0_6 false))
((q_0_7 false))
((q_0_8 false))
((q_0_9 false))
((q_0_10 false))
((q_0_11 false))
((q_0_12 false))
((q_0_13 false))
((q_0_14 false))
((q_0_15 true))
((q_1_0 false))
((q_1_1 false))
((q_1_2 false))
((q_1_3 false))
((q_1_4 false))
((q_1_5 false))
((q_1_6 false))
((q_1_7 false))
((q_1_8 true))
((q_1_9 false))
((q_1_10 false))
((q_1_11 false))
((q_1_12 false))
((q_1_13 false))
((q_1_14 false))
((q_1_15 false))
((q_2_0 false))
((q_2_1 false))
((q_2_2 true))
((q_2_3 false))
((q_2_4 false))
((q_2_5 false))
((q_2_6 false))
((q_2_7 false))
((q_2_8 false))
((q_2_9 false))
((q_2_10 false))
((q_2_11 false))
((q_2_12 false))
((q_2_13 false))
((q_2_14 false))
((q_2_15 false))
((q_3_0 true))
((q_3_1 false))
((q_3_2 false))
((q_3_3 false))
((q_3_4 false))
((q_3_5 false))
((q_3_6 false))
((q_3_7 false))
((q_3_8 false))
((q_3_9 false))
((q_3_10 false))
((q_3_11 false))
((q_3_12 false))
((q_3_13 false))
((q_3_14 false))
((q_3_15 false))
((q_4_0 false))
((q_4_1 false))
((q_4_2 false))
((q_4_3 false))
((q_4_4 false))
((q_4_5 false))
((q_4_6 false))
((q_4_7 true))
((q_4_8 false))
((q_4_9 false))
((q_4_10 false))
((q_4_11 false))
((q_4_12 false))
((q_4_13 false))
((q_4_14 false))
((q_4_15 false))
((q_5_0 false))
((q_5_1 false))
((q_5_2 false))
((q_5_3 true))
((q_5_4 false))
((q_5_5 false))
((q_5_6 false))
((q_5_7 false))
((q_5_8 false))
((q_5_9 false))
((q_5_10 false))
((q_5_11 false))
((q_5_12 false))
((q_5_13 false))
((q_5_14 false))
((q_5_15 false))
((q_6_0 false))
((q_6_1 false))
((q_6_2 false))
((q_6_3 false))
((q_6_4 false))
((q_6_5 false))
((q_6_6 false))
((q_6_7 false))
((q_6_8 false))
((q_6_9 false))
((q_6_10 true))
((q_6_11 false))
((q_6_12 false))
((q_6_13 false))
((q_6_14 false))
((q_6_15 false))
((q_7_0 false))
((q_7_1 false))
((q_7_2 false))
((q_7_3 false))
((q_7_4 false))
((q_7_5 false))
((q_7_6 false))
((q_7_7 false))
((q_7_8 false))
((q_7_9 false))
((q_7_10 false))
((q_7_11 false))
((q_7_12 false))
((q_7_13 true))
((q_7_14 false))
((q_7_15 false))
((q_8_0 false))
((q_8_1 false))
((q_8_2 false))
((q_8_3 false))
((q_8_4 true))
((q_8_5 false))
((q_8_6 false))
((q_8_7 false))
((q_8_8 false))
((q_8_9 false))
((q_8_10 false))
((q_8_11 false))
((q_8_12 false))
((q_8_13 false))
((q_8_14 false))
((q_8_15 false))
((q_9_0 false))
((q_9_1 true))
((q_9_2 false))
((q_9_3 false))
((q_9_4 false))
((q_9_5 false))
((q_9_6 false))
((q_9_7 false))
((q_9_8 false))
((q_9_9 false))
((q_9_10 false))
((q_9_11 false))
((q_9_12 false))
((q_9_13 false))
((q_9_14 false))
((q_9_15 false))
((q_10_0 false))
((q_10_1 false))
((q_10_2 false))
((q_10_3 false))
((q_10_4 false))
((q_10_5 false))
((q_10_6 false))
((q_10_7 false))
((q_10_8 false))
((q_10_9 false))
((q_10_10 false))
((q_10_11 true))
((q_10_12 false))
((q_10_13 false))
((q_10_14 false))
((q_10_15 false))
((q_11_0 false))
((q_11_1 false))
((q_11_2 false))
((q_11_3 false))
((q_11_4 false))
((q_11_5 false))
((q_11_6 true))
((q_11_7 false))
((q_11_8 false))
((q_11_9 false))
((q_11_10 false))
((q_11_11 false))
((q_11_12 false))
((q_11_13 false))
((q_11_14 false))
((q_11_15 false))
((q_12_0 false))
((q_12_1 false))
((q_12_2 false))
((q_12_3 false))
((q_12_4 false))
((q_12_5 false))
((q_12_6 false))
((q_12_7 false))
((q_12_8 false))
((q_12_9 false))
((q_12_10 false))
((q_12_11 false))
((q_12_12 false))
((q_12_13 false))
((q_12_14 true))
((q_12_15 false))
((q_13_0 false))
((q_13_1 false))
((q_13_2 false))
((q_13_3 false))
((q_13_4 false))
((q_13_5 false))
((q_13_6 false))
((q_13_7 false))
((q_13_8 false))
((q_13_9 false))
((q_13_10 false))
((q_13_11 false))
((q_13_12 true))
((q_13_13 false))
((q_13_14 false))
((q_13_15 false))
((q_14_0 false))
((q_14_1 false))
((q_14_2 false))
((q_14_3 false))
((q_14_4 false))
((q_14_5 true))
((q_14_6 false))
((q_14_7 false))
((q_14_8 false))
((q_14_9 false))
((q_14_10 false))
((q_14_11 false))
((q_14_12 false))
((q_14_13 false))
((q_14_14 false))
((q_14_15 false))
((q_15_0 false))
((q_15_1 false))
((q_15_2 false))
((q_15_3 false))
((q_15_4 false))
((q_15_5 false))
((q_15_6 false))
((q_15_7 false))
((q_15_8 false))
((q_15_9 true))
((q_15_10 false))
((q_15_11 false))
((q_15_12 false))
((q_15_13 false))
((q_15_14 false))
((q_15_15 false))
